161
0 55 109 128 134 121 111 79 104 26 
154 68 159 33 160 13 137 125 70 84 
94 135 47 8 91 144 83 76 122 124 
24 158 92 77 30 152 42 96 41 138 
36 127 118 29 143 11 157 129 40 145 
88 58 18 16 5 78 81 45 15 119 
89 132 120 39 4 53 156 50 97 44 
131 139 61 149 99 113 49 1 71 32 
59 90 112 115 51 114 72 95 46 105 
6 136 108 20 101 103 60 22 98 153 
87 65 66 52 23 155 69 17 62 123 
31 3 107 130 133 151 27 73 57 38 
64 9 63 85 35 2 10 126 56 117 
67 116 48 43 34 80 110 12 141 106 
142 147 86 19 74 25 28 37 100 82 
75 150 21 93 148 102 7 140 54 146 
14 
